(declare-fun var0 () String)
(assert (RegexIn var0 (RegexConcat (RegexStar (RegexUnion (RegexStar (RegexUnion (RegexPlus (RegexPlus (RegexUnion (RegexUnion (RegexPlus (RegexPlus (RegexPlus (Str2Reg "b")))) (RegexStar (RegexStar (RegexStar (Str2Reg "cc"))))) (RegexPlus (RegexStar (RegexUnion (RegexStar (Str2Reg "dd")) (RegexStar (Str2Reg "ee")))))))) (RegexPlus (RegexStar (RegexStar (RegexUnion (RegexPlus (RegexStar (RegexUnion (Str2Reg "fff") (Str2Reg "gg")))) (RegexStar (RegexUnion (RegexUnion (Str2Reg "hh") (Str2Reg "iii")) (RegexPlus (Str2Reg "j")))))))))) (RegexUnion (RegexStar (RegexUnion (RegexUnion (RegexPlus (RegexPlus (RegexUnion (RegexUnion (RegexStar (Str2Reg "kkk")) (RegexStar (Str2Reg "ll"))) (RegexPlus (RegexPlus (Str2Reg "m")))))) (RegexStar (RegexStar (RegexPlus (RegexPlus (RegexUnion (Str2Reg "n") (Str2Reg "ooo"))))))) (RegexUnion (RegexStar (RegexUnion (RegexUnion (RegexStar (RegexStar (Str2Reg "ppp"))) (RegexUnion (RegexPlus (Str2Reg "q")) (RegexUnion (Str2Reg "rrr") (Str2Reg "ss")))) (RegexPlus (RegexUnion (RegexStar (Str2Reg "ttt")) (RegexPlus (Str2Reg "uu")))))) (RegexStar (RegexPlus (RegexUnion (RegexUnion (RegexStar (Str2Reg "v")) (RegexStar (Str2Reg "ww"))) (RegexUnion (RegexUnion (Str2Reg "x") (Str2Reg "yy")) (RegexStar (Str2Reg "zzz"))))))))) (RegexUnion (RegexPlus (RegexUnion (RegexUnion (RegexPlus (RegexUnion (RegexPlus (RegexPlus (Str2Reg "AAA"))) (RegexUnion (RegexPlus (Str2Reg "BBB")) (RegexUnion (Str2Reg "CC") (Str2Reg "DDD"))))) (RegexUnion (RegexPlus (RegexUnion (RegexStar (Str2Reg "E")) (RegexPlus (Str2Reg "FF")))) (RegexPlus (RegexUnion (RegexStar (Str2Reg "GGG")) (RegexPlus (Str2Reg "H")))))) (RegexStar (RegexStar (RegexStar (RegexPlus (RegexStar (Str2Reg "II")))))))) (RegexUnion (RegexPlus (RegexUnion (RegexStar (RegexUnion (RegexUnion (RegexPlus (Str2Reg "JJ")) (RegexStar (Str2Reg "KKK"))) (RegexUnion (RegexUnion (Str2Reg "L") (Str2Reg "MM")) (RegexStar (Str2Reg "N"))))) (RegexPlus (RegexUnion (RegexPlus (RegexPlus (Str2Reg "OO"))) (RegexStar (RegexStar (Str2Reg "P"))))))) (RegexPlus (RegexStar (RegexStar (RegexUnion (RegexPlus (RegexUnion (Str2Reg "Q") (Str2Reg "R"))) (RegexStar (RegexPlus (Str2Reg "SSS")))))))))))) (RegexPlus (RegexPlus (RegexUnion (RegexStar (RegexPlus (RegexUnion (RegexPlus (RegexPlus (RegexStar (RegexUnion (RegexUnion (Str2Reg "000") (Str2Reg "111")) (RegexStar (Str2Reg "2")))))) (RegexStar (RegexStar (RegexStar (RegexPlus (RegexStar (Str2Reg "33"))))))))) (RegexUnion (RegexStar (RegexStar (RegexPlus (RegexPlus (RegexStar (RegexUnion (RegexPlus (Str2Reg "444")) (RegexPlus (Str2Reg "5")))))))) (RegexUnion (RegexStar (RegexStar (RegexPlus (RegexStar (RegexUnion (RegexPlus (Str2Reg "6")) (RegexPlus (Str2Reg "77"))))))) (RegexStar (RegexStar (RegexPlus (RegexUnion (RegexUnion (RegexStar (Str2Reg "8")) (RegexStar (Str2Reg "999"))) (RegexStar (RegexStar (Str2Reg "aaa")))))))))))))))
(assert (<= 15 (Length var0)))
(check-sat)